p cnf 504 1236
1 2 3 0
-109 0
-1 110 0
-2 110 0
-1 -2 111 0
-3 112 0
-109 112 0
-3 -109 113 0
-110 114 0
-112 114 0
-110 -112 115 0
-111 116 0
-113 116 0
-111 -113 117 0
-115 118 0
-116 118 0
-115 -116 119 0
-118 0
28 29 30 0
-120 0
-28 121 0
-29 121 0
-28 -29 122 0
-30 123 0
-120 123 0
-30 -120 124 0
-121 125 0
-123 125 0
-121 -123 126 0
-122 127 0
-124 127 0
-122 -124 128 0
-126 129 0
-127 129 0
-126 -127 130 0
-129 0
55 56 57 0
-131 0
-55 132 0
-56 132 0
-55 -56 133 0
-57 134 0
-131 134 0
-57 -131 135 0
-132 136 0
-134 136 0
-132 -134 137 0
-133 138 0
-135 138 0
-133 -135 139 0
-137 140 0
-138 140 0
-137 -138 141 0
-140 0
82 83 84 0
-142 0
-82 143 0
-83 143 0
-82 -83 144 0
-84 145 0
-142 145 0
-84 -142 146 0
-143 147 0
-145 147 0
-143 -145 148 0
-144 149 0
-146 149 0
-144 -146 150 0
-148 151 0
-149 151 0
-148 -149 152 0
-151 0
4 5 6 0
-153 0
-4 154 0
-5 154 0
-4 -5 155 0
-6 156 0
-153 156 0
-6 -153 157 0
-154 158 0
-156 158 0
-154 -156 159 0
-155 160 0
-157 160 0
-155 -157 161 0
-159 162 0
-160 162 0
-159 -160 163 0
-162 0
31 32 33 0
-164 0
-31 165 0
-32 165 0
-31 -32 166 0
-33 167 0
-164 167 0
-33 -164 168 0
-165 169 0
-167 169 0
-165 -167 170 0
-166 171 0
-168 171 0
-166 -168 172 0
-170 173 0
-171 173 0
-170 -171 174 0
-173 0
58 59 60 0
-175 0
-58 176 0
-59 176 0
-58 -59 177 0
-60 178 0
-175 178 0
-60 -175 179 0
-176 180 0
-178 180 0
-176 -178 181 0
-177 182 0
-179 182 0
-177 -179 183 0
-181 184 0
-182 184 0
-181 -182 185 0
-184 0
85 86 87 0
-186 0
-85 187 0
-86 187 0
-85 -86 188 0
-87 189 0
-186 189 0
-87 -186 190 0
-187 191 0
-189 191 0
-187 -189 192 0
-188 193 0
-190 193 0
-188 -190 194 0
-192 195 0
-193 195 0
-192 -193 196 0
-195 0
7 8 9 0
-197 0
-7 198 0
-8 198 0
-7 -8 199 0
-9 200 0
-197 200 0
-9 -197 201 0
-198 202 0
-200 202 0
-198 -200 203 0
-199 204 0
-201 204 0
-199 -201 205 0
-203 206 0
-204 206 0
-203 -204 207 0
-206 0
34 35 36 0
-208 0
-34 209 0
-35 209 0
-34 -35 210 0
-36 211 0
-208 211 0
-36 -208 212 0
-209 213 0
-211 213 0
-209 -211 214 0
-210 215 0
-212 215 0
-210 -212 216 0
-214 217 0
-215 217 0
-214 -215 218 0
-217 0
61 62 63 0
-219 0
-61 220 0
-62 220 0
-61 -62 221 0
-63 222 0
-219 222 0
-63 -219 223 0
-220 224 0
-222 224 0
-220 -222 225 0
-221 226 0
-223 226 0
-221 -223 227 0
-225 228 0
-226 228 0
-225 -226 229 0
-228 0
88 89 90 0
-230 0
-88 231 0
-89 231 0
-88 -89 232 0
-90 233 0
-230 233 0
-90 -230 234 0
-231 235 0
-233 235 0
-231 -233 236 0
-232 237 0
-234 237 0
-232 -234 238 0
-236 239 0
-237 239 0
-236 -237 240 0
-239 0
10 11 12 0
-241 0
-10 242 0
-11 242 0
-10 -11 243 0
-12 244 0
-241 244 0
-12 -241 245 0
-242 246 0
-244 246 0
-242 -244 247 0
-243 248 0
-245 248 0
-243 -245 249 0
-247 250 0
-248 250 0
-247 -248 251 0
-250 0
37 38 39 0
-252 0
-37 253 0
-38 253 0
-37 -38 254 0
-39 255 0
-252 255 0
-39 -252 256 0
-253 257 0
-255 257 0
-253 -255 258 0
-254 259 0
-256 259 0
-254 -256 260 0
-258 261 0
-259 261 0
-258 -259 262 0
-261 0
64 65 66 0
-263 0
-64 264 0
-65 264 0
-64 -65 265 0
-66 266 0
-263 266 0
-66 -263 267 0
-264 268 0
-266 268 0
-264 -266 269 0
-265 270 0
-267 270 0
-265 -267 271 0
-269 272 0
-270 272 0
-269 -270 273 0
-272 0
91 92 93 0
-274 0
-91 275 0
-92 275 0
-91 -92 276 0
-93 277 0
-274 277 0
-93 -274 278 0
-275 279 0
-277 279 0
-275 -277 280 0
-276 281 0
-278 281 0
-276 -278 282 0
-280 283 0
-281 283 0
-280 -281 284 0
-283 0
13 14 15 0
-285 0
-13 286 0
-14 286 0
-13 -14 287 0
-15 288 0
-285 288 0
-15 -285 289 0
-286 290 0
-288 290 0
-286 -288 291 0
-287 292 0
-289 292 0
-287 -289 293 0
-291 294 0
-292 294 0
-291 -292 295 0
-294 0
40 41 42 0
-296 0
-40 297 0
-41 297 0
-40 -41 298 0
-42 299 0
-296 299 0
-42 -296 300 0
-297 301 0
-299 301 0
-297 -299 302 0
-298 303 0
-300 303 0
-298 -300 304 0
-302 305 0
-303 305 0
-302 -303 306 0
-305 0
67 68 69 0
-307 0
-67 308 0
-68 308 0
-67 -68 309 0
-69 310 0
-307 310 0
-69 -307 311 0
-308 312 0
-310 312 0
-308 -310 313 0
-309 314 0
-311 314 0
-309 -311 315 0
-313 316 0
-314 316 0
-313 -314 317 0
-316 0
94 95 96 0
-318 0
-94 319 0
-95 319 0
-94 -95 320 0
-96 321 0
-318 321 0
-96 -318 322 0
-319 323 0
-321 323 0
-319 -321 324 0
-320 325 0
-322 325 0
-320 -322 326 0
-324 327 0
-325 327 0
-324 -325 328 0
-327 0
16 17 18 0
-329 0
-16 330 0
-17 330 0
-16 -17 331 0
-18 332 0
-329 332 0
-18 -329 333 0
-330 334 0
-332 334 0
-330 -332 335 0
-331 336 0
-333 336 0
-331 -333 337 0
-335 338 0
-336 338 0
-335 -336 339 0
-338 0
43 44 45 0
-340 0
-43 341 0
-44 341 0
-43 -44 342 0
-45 343 0
-340 343 0
-45 -340 344 0
-341 345 0
-343 345 0
-341 -343 346 0
-342 347 0
-344 347 0
-342 -344 348 0
-346 349 0
-347 349 0
-346 -347 350 0
-349 0
70 71 72 0
-351 0
-70 352 0
-71 352 0
-70 -71 353 0
-72 354 0
-351 354 0
-72 -351 355 0
-352 356 0
-354 356 0
-352 -354 357 0
-353 358 0
-355 358 0
-353 -355 359 0
-357 360 0
-358 360 0
-357 -358 361 0
-360 0
97 98 99 0
-362 0
-97 363 0
-98 363 0
-97 -98 364 0
-99 365 0
-362 365 0
-99 -362 366 0
-363 367 0
-365 367 0
-363 -365 368 0
-364 369 0
-366 369 0
-364 -366 370 0
-368 371 0
-369 371 0
-368 -369 372 0
-371 0
19 20 21 0
-373 0
-19 374 0
-20 374 0
-19 -20 375 0
-21 376 0
-373 376 0
-21 -373 377 0
-374 378 0
-376 378 0
-374 -376 379 0
-375 380 0
-377 380 0
-375 -377 381 0
-379 382 0
-380 382 0
-379 -380 383 0
-382 0
46 47 48 0
-384 0
-46 385 0
-47 385 0
-46 -47 386 0
-48 387 0
-384 387 0
-48 -384 388 0
-385 389 0
-387 389 0
-385 -387 390 0
-386 391 0
-388 391 0
-386 -388 392 0
-390 393 0
-391 393 0
-390 -391 394 0
-393 0
73 74 75 0
-395 0
-73 396 0
-74 396 0
-73 -74 397 0
-75 398 0
-395 398 0
-75 -395 399 0
-396 400 0
-398 400 0
-396 -398 401 0
-397 402 0
-399 402 0
-397 -399 403 0
-401 404 0
-402 404 0
-401 -402 405 0
-404 0
100 101 102 0
-406 0
-100 407 0
-101 407 0
-100 -101 408 0
-102 409 0
-406 409 0
-102 -406 410 0
-407 411 0
-409 411 0
-407 -409 412 0
-408 413 0
-410 413 0
-408 -410 414 0
-412 415 0
-413 415 0
-412 -413 416 0
-415 0
22 23 24 0
-417 0
-22 418 0
-23 418 0
-22 -23 419 0
-24 420 0
-417 420 0
-24 -417 421 0
-418 422 0
-420 422 0
-418 -420 423 0
-419 424 0
-421 424 0
-419 -421 425 0
-423 426 0
-424 426 0
-423 -424 427 0
-426 0
49 50 51 0
-428 0
-49 429 0
-50 429 0
-49 -50 430 0
-51 431 0
-428 431 0
-51 -428 432 0
-429 433 0
-431 433 0
-429 -431 434 0
-430 435 0
-432 435 0
-430 -432 436 0
-434 437 0
-435 437 0
-434 -435 438 0
-437 0
76 77 78 0
-439 0
-76 440 0
-77 440 0
-76 -77 441 0
-78 442 0
-439 442 0
-78 -439 443 0
-440 444 0
-442 444 0
-440 -442 445 0
-441 446 0
-443 446 0
-441 -443 447 0
-445 448 0
-446 448 0
-445 -446 449 0
-448 0
103 104 105 0
-450 0
-103 451 0
-104 451 0
-103 -104 452 0
-105 453 0
-450 453 0
-105 -450 454 0
-451 455 0
-453 455 0
-451 -453 456 0
-452 457 0
-454 457 0
-452 -454 458 0
-456 459 0
-457 459 0
-456 -457 460 0
-459 0
25 26 27 0
-461 0
-25 462 0
-26 462 0
-25 -26 463 0
-27 464 0
-461 464 0
-27 -461 465 0
-462 466 0
-464 466 0
-462 -464 467 0
-463 468 0
-465 468 0
-463 -465 469 0
-467 470 0
-468 470 0
-467 -468 471 0
-470 0
52 53 54 0
-472 0
-52 473 0
-53 473 0
-52 -53 474 0
-54 475 0
-472 475 0
-54 -472 476 0
-473 477 0
-475 477 0
-473 -475 478 0
-474 479 0
-476 479 0
-474 -476 480 0
-478 481 0
-479 481 0
-478 -479 482 0
-481 0
79 80 81 0
-483 0
-79 484 0
-80 484 0
-79 -80 485 0
-81 486 0
-483 486 0
-81 -483 487 0
-484 488 0
-486 488 0
-484 -486 489 0
-485 490 0
-487 490 0
-485 -487 491 0
-489 492 0
-490 492 0
-489 -490 493 0
-492 0
106 107 108 0
-494 0
-106 495 0
-107 495 0
-106 -107 496 0
-108 497 0
-494 497 0
-108 -494 498 0
-495 499 0
-497 499 0
-495 -497 500 0
-496 501 0
-498 501 0
-496 -498 502 0
-500 503 0
-501 503 0
-500 -501 504 0
-503 0
-1 -28 5 0
-1 -29 5 0
-1 -30 5 0
-2 -28 5 0
-2 -29 6 0
-2 -30 6 0
-3 -28 5 0
-3 -29 6 0
-3 -30 4 0
-28 -1 -55 32 0
-28 -2 -55 32 0
-28 -3 -55 32 0
-28 -1 -56 32 0
-28 -2 -56 32 0
-28 -3 -56 32 0
-28 -1 -57 32 0
-28 -2 -57 32 0
-28 -3 -57 32 0
-29 -1 -55 32 0
-29 -2 -55 32 0
-29 -3 -55 32 0
-29 -1 -56 32 0
-29 -2 -56 33 0
-29 -3 -56 33 0
-29 -1 -57 32 0
-29 -2 -57 33 0
-29 -3 -57 33 0
-30 -1 -55 32 0
-30 -2 -55 32 0
-30 -3 -55 32 0
-30 -1 -56 32 0
-30 -2 -56 33 0
-30 -3 -56 33 0
-30 -1 -57 32 0
-30 -2 -57 33 0
-30 -3 -57 31 0
-55 -28 -82 59 0
-55 -29 -82 59 0
-55 -30 -82 59 0
-55 -28 -83 59 0
-55 -29 -83 59 0
-55 -30 -83 59 0
-55 -28 -84 59 0
-55 -29 -84 59 0
-55 -30 -84 59 0
-56 -28 -82 59 0
-56 -29 -82 59 0
-56 -30 -82 59 0
-56 -28 -83 59 0
-56 -29 -83 60 0
-56 -30 -83 60 0
-56 -28 -84 59 0
-56 -29 -84 60 0
-56 -30 -84 60 0
-57 -28 -82 59 0
-57 -29 -82 59 0
-57 -30 -82 59 0
-57 -28 -83 59 0
-57 -29 -83 60 0
-57 -30 -83 60 0
-57 -28 -84 59 0
-57 -29 -84 60 0
-57 -30 -84 58 0
-82 -55 86 0
-82 -56 86 0
-82 -57 86 0
-83 -55 86 0
-83 -56 87 0
-83 -57 87 0
-84 -55 86 0
-84 -56 87 0
-84 -57 85 0
-4 -31 8 0
-4 -32 8 0
-4 -33 8 0
-5 -31 8 0
-5 -32 9 0
-5 -33 9 0
-6 -31 8 0
-6 -32 9 0
-6 -33 7 0
-31 -4 -58 35 0
-31 -5 -58 35 0
-31 -6 -58 35 0
-31 -4 -59 35 0
-31 -5 -59 35 0
-31 -6 -59 35 0
-31 -4 -60 35 0
-31 -5 -60 35 0
-31 -6 -60 35 0
-32 -4 -58 35 0
-32 -5 -58 35 0
-32 -6 -58 35 0
-32 -4 -59 35 0
-32 -5 -59 36 0
-32 -6 -59 36 0
-32 -4 -60 35 0
-32 -5 -60 36 0
-32 -6 -60 36 0
-33 -4 -58 35 0
-33 -5 -58 35 0
-33 -6 -58 35 0
-33 -4 -59 35 0
-33 -5 -59 36 0
-33 -6 -59 36 0
-33 -4 -60 35 0
-33 -5 -60 36 0
-33 -6 -60 34 0
-58 -31 -85 62 0
-58 -32 -85 62 0
-58 -33 -85 62 0
-58 -31 -86 62 0
-58 -32 -86 62 0
-58 -33 -86 62 0
-58 -31 -87 62 0
-58 -32 -87 62 0
-58 -33 -87 62 0
-59 -31 -85 62 0
-59 -32 -85 62 0
-59 -33 -85 62 0
-59 -31 -86 62 0
-59 -32 -86 63 0
-59 -33 -86 63 0
-59 -31 -87 62 0
-59 -32 -87 63 0
-59 -33 -87 63 0
-60 -31 -85 62 0
-60 -32 -85 62 0
-60 -33 -85 62 0
-60 -31 -86 62 0
-60 -32 -86 63 0
-60 -33 -86 63 0
-60 -31 -87 62 0
-60 -32 -87 63 0
-60 -33 -87 61 0
-85 -58 89 0
-85 -59 89 0
-85 -60 89 0
-86 -58 89 0
-86 -59 90 0
-86 -60 90 0
-87 -58 89 0
-87 -59 90 0
-87 -60 88 0
-7 -34 11 0
-7 -35 11 0
-7 -36 11 0
-8 -34 11 0
-8 -35 12 0
-8 -36 12 0
-9 -34 11 0
-9 -35 12 0
-9 -36 10 0
-34 -7 -61 38 0
-34 -8 -61 38 0
-34 -9 -61 38 0
-34 -7 -62 38 0
-34 -8 -62 38 0
-34 -9 -62 38 0
-34 -7 -63 38 0
-34 -8 -63 38 0
-34 -9 -63 38 0
-35 -7 -61 38 0
-35 -8 -61 38 0
-35 -9 -61 38 0
-35 -7 -62 38 0
-35 -8 -62 39 0
-35 -9 -62 39 0
-35 -7 -63 38 0
-35 -8 -63 39 0
-35 -9 -63 39 0
-36 -7 -61 38 0
-36 -8 -61 38 0
-36 -9 -61 38 0
-36 -7 -62 38 0
-36 -8 -62 39 0
-36 -9 -62 39 0
-36 -7 -63 38 0
-36 -8 -63 39 0
-36 -9 -63 37 0
-61 -34 -88 65 0
-61 -35 -88 65 0
-61 -36 -88 65 0
-61 -34 -89 65 0
-61 -35 -89 65 0
-61 -36 -89 65 0
-61 -34 -90 65 0
-61 -35 -90 65 0
-61 -36 -90 65 0
-62 -34 -88 65 0
-62 -35 -88 65 0
-62 -36 -88 65 0
-62 -34 -89 65 0
-62 -35 -89 66 0
-62 -36 -89 66 0
-62 -34 -90 65 0
-62 -35 -90 66 0
-62 -36 -90 66 0
-63 -34 -88 65 0
-63 -35 -88 65 0
-63 -36 -88 65 0
-63 -34 -89 65 0
-63 -35 -89 66 0
-63 -36 -89 66 0
-63 -34 -90 65 0
-63 -35 -90 66 0
-63 -36 -90 64 0
-88 -61 92 0
-88 -62 92 0
-88 -63 92 0
-89 -61 92 0
-89 -62 93 0
-89 -63 93 0
-90 -61 92 0
-90 -62 93 0
-90 -63 91 0
-10 -37 14 0
-10 -38 14 0
-10 -39 14 0
-11 -37 14 0
-11 -38 15 0
-11 -39 15 0
-12 -37 14 0
-12 -38 15 0
-12 -39 13 0
-37 -10 -64 41 0
-37 -11 -64 41 0
-37 -12 -64 41 0
-37 -10 -65 41 0
-37 -11 -65 41 0
-37 -12 -65 41 0
-37 -10 -66 41 0
-37 -11 -66 41 0
-37 -12 -66 41 0
-38 -10 -64 41 0
-38 -11 -64 41 0
-38 -12 -64 41 0
-38 -10 -65 41 0
-38 -11 -65 42 0
-38 -12 -65 42 0
-38 -10 -66 41 0
-38 -11 -66 42 0
-38 -12 -66 42 0
-39 -10 -64 41 0
-39 -11 -64 41 0
-39 -12 -64 41 0
-39 -10 -65 41 0
-39 -11 -65 42 0
-39 -12 -65 42 0
-39 -10 -66 41 0
-39 -11 -66 42 0
-39 -12 -66 40 0
-64 -37 -91 68 0
-64 -38 -91 68 0
-64 -39 -91 68 0
-64 -37 -92 68 0
-64 -38 -92 68 0
-64 -39 -92 68 0
-64 -37 -93 68 0
-64 -38 -93 68 0
-64 -39 -93 68 0
-65 -37 -91 68 0
-65 -38 -91 68 0
-65 -39 -91 68 0
-65 -37 -92 68 0
-65 -38 -92 69 0
-65 -39 -92 69 0
-65 -37 -93 68 0
-65 -38 -93 69 0
-65 -39 -93 69 0
-66 -37 -91 68 0
-66 -38 -91 68 0
-66 -39 -91 68 0
-66 -37 -92 68 0
-66 -38 -92 69 0
-66 -39 -92 69 0
-66 -37 -93 68 0
-66 -38 -93 69 0
-66 -39 -93 67 0
-91 -64 95 0
-91 -65 95 0
-91 -66 95 0
-92 -64 95 0
-92 -65 96 0
-92 -66 96 0
-93 -64 95 0
-93 -65 96 0
-93 -66 94 0
-13 -40 17 0
-13 -41 17 0
-13 -42 17 0
-14 -40 17 0
-14 -41 18 0
-14 -42 18 0
-15 -40 17 0
-15 -41 18 0
-15 -42 16 0
-40 -13 -67 44 0
-40 -14 -67 44 0
-40 -15 -67 44 0
-40 -13 -68 44 0
-40 -14 -68 44 0
-40 -15 -68 44 0
-40 -13 -69 44 0
-40 -14 -69 44 0
-40 -15 -69 44 0
-41 -13 -67 44 0
-41 -14 -67 44 0
-41 -15 -67 44 0
-41 -13 -68 44 0
-41 -14 -68 45 0
-41 -15 -68 45 0
-41 -13 -69 44 0
-41 -14 -69 45 0
-41 -15 -69 45 0
-42 -13 -67 44 0
-42 -14 -67 44 0
-42 -15 -67 44 0
-42 -13 -68 44 0
-42 -14 -68 45 0
-42 -15 -68 45 0
-42 -13 -69 44 0
-42 -14 -69 45 0
-42 -15 -69 43 0
-67 -40 -94 71 0
-67 -41 -94 71 0
-67 -42 -94 71 0
-67 -40 -95 71 0
-67 -41 -95 71 0
-67 -42 -95 71 0
-67 -40 -96 71 0
-67 -41 -96 71 0
-67 -42 -96 71 0
-68 -40 -94 71 0
-68 -41 -94 71 0
-68 -42 -94 71 0
-68 -40 -95 71 0
-68 -41 -95 72 0
-68 -42 -95 72 0
-68 -40 -96 71 0
-68 -41 -96 72 0
-68 -42 -96 72 0
-69 -40 -94 71 0
-69 -41 -94 71 0
-69 -42 -94 71 0
-69 -40 -95 71 0
-69 -41 -95 72 0
-69 -42 -95 72 0
-69 -40 -96 71 0
-69 -41 -96 72 0
-69 -42 -96 70 0
-94 -67 98 0
-94 -68 98 0
-94 -69 98 0
-95 -67 98 0
-95 -68 99 0
-95 -69 99 0
-96 -67 98 0
-96 -68 99 0
-96 -69 97 0
-16 -43 20 0
-16 -44 20 0
-16 -45 20 0
-17 -43 20 0
-17 -44 21 0
-17 -45 21 0
-18 -43 20 0
-18 -44 21 0
-18 -45 19 0
-43 -16 -70 47 0
-43 -17 -70 47 0
-43 -18 -70 47 0
-43 -16 -71 47 0
-43 -17 -71 47 0
-43 -18 -71 47 0
-43 -16 -72 47 0
-43 -17 -72 47 0
-43 -18 -72 47 0
-44 -16 -70 47 0
-44 -17 -70 47 0
-44 -18 -70 47 0
-44 -16 -71 47 0
-44 -17 -71 48 0
-44 -18 -71 48 0
-44 -16 -72 47 0
-44 -17 -72 48 0
-44 -18 -72 48 0
-45 -16 -70 47 0
-45 -17 -70 47 0
-45 -18 -70 47 0
-45 -16 -71 47 0
-45 -17 -71 48 0
-45 -18 -71 48 0
-45 -16 -72 47 0
-45 -17 -72 48 0
-45 -18 -72 46 0
-70 -43 -97 74 0
-70 -44 -97 74 0
-70 -45 -97 74 0
-70 -43 -98 74 0
-70 -44 -98 74 0
-70 -45 -98 74 0
-70 -43 -99 74 0
-70 -44 -99 74 0
-70 -45 -99 74 0
-71 -43 -97 74 0
-71 -44 -97 74 0
-71 -45 -97 74 0
-71 -43 -98 74 0
-71 -44 -98 75 0
-71 -45 -98 75 0
-71 -43 -99 74 0
-71 -44 -99 75 0
-71 -45 -99 75 0
-72 -43 -97 74 0
-72 -44 -97 74 0
-72 -45 -97 74 0
-72 -43 -98 74 0
-72 -44 -98 75 0
-72 -45 -98 75 0
-72 -43 -99 74 0
-72 -44 -99 75 0
-72 -45 -99 73 0
-97 -70 101 0
-97 -71 101 0
-97 -72 101 0
-98 -70 101 0
-98 -71 102 0
-98 -72 102 0
-99 -70 101 0
-99 -71 102 0
-99 -72 100 0
-19 -46 23 0
-19 -47 23 0
-19 -48 23 0
-20 -46 23 0
-20 -47 24 0
-20 -48 24 0
-21 -46 23 0
-21 -47 24 0
-21 -48 22 0
-46 -19 -73 50 0
-46 -20 -73 50 0
-46 -21 -73 50 0
-46 -19 -74 50 0
-46 -20 -74 50 0
-46 -21 -74 50 0
-46 -19 -75 50 0
-46 -20 -75 50 0
-46 -21 -75 50 0
-47 -19 -73 50 0
-47 -20 -73 50 0
-47 -21 -73 50 0
-47 -19 -74 50 0
-47 -20 -74 51 0
-47 -21 -74 51 0
-47 -19 -75 50 0
-47 -20 -75 51 0
-47 -21 -75 51 0
-48 -19 -73 50 0
-48 -20 -73 50 0
-48 -21 -73 50 0
-48 -19 -74 50 0
-48 -20 -74 51 0
-48 -21 -74 51 0
-48 -19 -75 50 0
-48 -20 -75 51 0
-48 -21 -75 49 0
-73 -46 -100 77 0
-73 -47 -100 77 0
-73 -48 -100 77 0
-73 -46 -101 77 0
-73 -47 -101 77 0
-73 -48 -101 77 0
-73 -46 -102 77 0
-73 -47 -102 77 0
-73 -48 -102 77 0
-74 -46 -100 77 0
-74 -47 -100 77 0
-74 -48 -100 77 0
-74 -46 -101 77 0
-74 -47 -101 78 0
-74 -48 -101 78 0
-74 -46 -102 77 0
-74 -47 -102 78 0
-74 -48 -102 78 0
-75 -46 -100 77 0
-75 -47 -100 77 0
-75 -48 -100 77 0
-75 -46 -101 77 0
-75 -47 -101 78 0
-75 -48 -101 78 0
-75 -46 -102 77 0
-75 -47 -102 78 0
-75 -48 -102 76 0
-100 -73 104 0
-100 -74 104 0
-100 -75 104 0
-101 -73 104 0
-101 -74 105 0
-101 -75 105 0
-102 -73 104 0
-102 -74 105 0
-102 -75 103 0
-22 -49 26 0
-22 -50 26 0
-22 -51 26 0
-23 -49 26 0
-23 -50 27 0
-23 -51 27 0
-24 -49 26 0
-24 -50 27 0
-24 -51 25 0
-49 -22 -76 53 0
-49 -23 -76 53 0
-49 -24 -76 53 0
-49 -22 -77 53 0
-49 -23 -77 53 0
-49 -24 -77 53 0
-49 -22 -78 53 0
-49 -23 -78 53 0
-49 -24 -78 53 0
-50 -22 -76 53 0
-50 -23 -76 53 0
-50 -24 -76 53 0
-50 -22 -77 53 0
-50 -23 -77 54 0
-50 -24 -77 54 0
-50 -22 -78 53 0
-50 -23 -78 54 0
-50 -24 -78 54 0
-51 -22 -76 53 0
-51 -23 -76 53 0
-51 -24 -76 53 0
-51 -22 -77 53 0
-51 -23 -77 54 0
-51 -24 -77 54 0
-51 -22 -78 53 0
-51 -23 -78 54 0
-51 -24 -78 52 0
-76 -49 -103 80 0
-76 -50 -103 80 0
-76 -51 -103 80 0
-76 -49 -104 80 0
-76 -50 -104 80 0
-76 -51 -104 80 0
-76 -49 -105 80 0
-76 -50 -105 80 0
-76 -51 -105 80 0
-77 -49 -103 80 0
-77 -50 -103 80 0
-77 -51 -103 80 0
-77 -49 -104 80 0
-77 -50 -104 81 0
-77 -51 -104 81 0
-77 -49 -105 80 0
-77 -50 -105 81 0
-77 -51 -105 81 0
-78 -49 -103 80 0
-78 -50 -103 80 0
-78 -51 -103 80 0
-78 -49 -104 80 0
-78 -50 -104 81 0
-78 -51 -104 81 0
-78 -49 -105 80 0
-78 -50 -105 81 0
-78 -51 -105 79 0
-103 -76 107 0
-103 -77 107 0
-103 -78 107 0
-104 -76 107 0
-104 -77 108 0
-104 -78 108 0
-105 -76 107 0
-105 -77 108 0
-105 -78 106 0
-25 -52 -79 -106 0
-26 -53 -80 -107 0
-27 -54 -81 -108 0
-1 -28 -55 -82 0
-2 -29 -56 -83 0
-3 -30 -57 -84 0
-7 -34 -61 -88 0
-8 -35 -62 -89 0
-9 -36 -63 -90 0
-16 -43 -70 -97 0
-17 -44 -71 -98 0
-18 -45 -72 -99 0
